c Generated map
c Size: 13 * 13, weights in range: 1 to 10, walls: True, with ratio 0.2
c dim 1 of 3
c
p sp 169 201
c graph contains 169 nodes and 201 arcs
c
a 1 2 10
a 2 1 10
a 2 15 9
a 15 2 9
a 2 3 7
a 3 2 7
a 3 16 10
a 16 3 10
a 3 4 7
a 4 3 7
a 4 17 9
a 17 4 9
a 4 5 6
a 5 4 6
a 5 18 2
a 18 5 2
a 7 20 2
a 20 7 2
a 7 8 2
a 8 7 2
a 10 23 2
a 23 10 2
a 10 11 10
a 11 10 10
a 11 24 1
a 24 11 1
a 11 12 8
a 12 11 8
a 12 25 6
a 25 12 6
a 12 13 10
a 13 12 10
a 13 26 3
a 26 13 3
a 15 28 8
a 28 15 8
a 15 16 8
a 16 15 8
a 16 29 5
a 29 16 5
a 16 17 9
a 17 16 9
a 17 18 2
a 18 17 2
a 20 33 5
a 33 20 5
a 22 35 9
a 35 22 9
a 22 23 1
a 23 22 1
a 23 36 8
a 36 23 8
a 23 24 4
a 24 23 4
a 24 37 8
a 37 24 8
a 24 25 7
a 25 24 7
a 25 38 3
a 38 25 3
a 25 26 9
a 26 25 9
a 26 39 8
a 39 26 8
a 28 41 10
a 41 28 10
a 28 29 2
a 29 28 2
a 32 45 10
a 45 32 10
a 32 33 1
a 33 32 1
a 33 46 8
a 46 33 8
a 33 34 1
a 34 33 1
a 34 35 6
a 35 34 6
a 35 48 5
a 48 35 5
a 35 36 6
a 36 35 6
a 36 49 4
a 49 36 4
a 36 37 3
a 37 36 3
a 37 50 4
a 50 37 4
a 37 38 2
a 38 37 2
a 38 51 1
a 51 38 1
a 38 39 4
a 39 38 4
a 39 52 6
a 52 39 6
a 40 53 6
a 53 40 6
a 40 41 5
a 41 40 5
a 43 56 1
a 56 43 1
a 43 44 5
a 44 43 5
a 44 57 7
a 57 44 7
a 44 45 10
a 45 44 10
a 45 58 5
a 58 45 5
a 45 46 3
a 46 45 3
a 46 59 1
a 59 46 1
a 48 61 9
a 61 48 9
a 48 49 10
a 49 48 10
a 49 50 2
a 50 49 2
a 50 63 3
a 63 50 3
a 50 51 8
a 51 50 8
a 51 64 1
a 64 51 1
a 51 52 4
a 52 51 4
a 52 65 9
a 65 52 9
a 53 66 9
a 66 53 9
a 55 68 7
a 68 55 7
a 55 56 5
a 56 55 5
a 56 57 1
a 57 56 1
a 57 70 8
a 70 57 8
a 57 58 4
a 58 57 4
a 58 71 10
a 71 58 10
a 58 59 6
a 59 58 6
a 59 72 4
a 72 59 4
a 59 60 7
a 60 59 7
a 60 73 8
a 73 60 8
a 60 61 10
a 61 60 10
a 63 76 3
a 76 63 3
a 63 64 5
a 64 63 5
a 64 77 8
a 77 64 8
a 64 65 1
a 65 64 1
a 66 79 10
a 79 66 10
a 68 81 9
a 81 68 9
a 70 83 1
a 83 70 1
a 70 71 6
a 71 70 6
a 71 84 5
a 84 71 5
a 71 72 5
a 72 71 5
a 72 73 3
a 73 72 3
a 73 86 1
a 86 73 1
a 75 88 4
a 88 75 4
a 75 76 1
a 76 75 1
a 76 89 1
a 89 76 1
a 76 77 7
a 77 76 7
a 77 90 1
a 90 77 1
a 79 92 2
a 92 79 2
a 79 80 10
a 80 79 10
a 80 93 2
a 93 80 2
a 80 81 7
a 81 80 7
a 83 96 3
a 96 83 3
a 83 84 1
a 84 83 1
a 84 97 3
a 97 84 3
a 86 99 8
a 99 86 8
a 86 87 3
a 87 86 3
a 87 100 2
a 100 87 2
a 87 88 9
a 88 87 9
a 88 101 8
a 101 88 8
a 88 89 7
a 89 88 7
a 89 102 2
a 102 89 2
a 89 90 9
a 90 89 9
a 90 103 3
a 103 90 3
a 92 105 3
a 105 92 3
a 92 93 2
a 93 92 2
a 96 97 3
a 97 96 3
a 97 110 2
a 110 97 2
a 97 98 5
a 98 97 5
a 98 111 9
a 111 98 9
a 98 99 6
a 99 98 6
a 99 112 5
a 112 99 5
a 99 100 4
a 100 99 4
a 100 113 8
a 113 100 8
a 100 101 8
a 101 100 8
a 101 102 9
a 102 101 9
a 102 115 2
a 115 102 2
a 102 103 3
a 103 102 3
a 103 116 3
a 116 103 3
a 103 104 9
a 104 103 9
a 104 117 9
a 117 104 9
a 107 108 4
a 108 107 4
a 108 121 4
a 121 108 4
a 110 111 9
a 111 110 9
a 111 124 3
a 124 111 3
a 111 112 9
a 112 111 9
a 112 125 4
a 125 112 4
a 112 113 5
a 113 112 5
a 113 126 6
a 126 113 6
a 115 128 3
a 128 115 3
a 115 116 10
a 116 115 10
a 116 129 10
a 129 116 10
a 116 117 10
a 117 116 10
a 117 130 7
a 130 117 7
a 121 134 3
a 134 121 3
a 124 137 6
a 137 124 6
a 124 125 6
a 125 124 6
a 125 138 9
a 138 125 9
a 125 126 3
a 126 125 3
a 126 127 8
a 127 126 8
a 127 140 5
a 140 127 5
a 127 128 10
a 128 127 10
a 128 141 8
a 141 128 8
a 128 129 10
a 129 128 10
a 129 142 1
a 142 129 1
a 129 130 2
a 130 129 2
a 130 143 2
a 143 130 2
a 132 145 7
a 145 132 7
a 134 147 3
a 147 134 3
a 134 135 9
a 135 134 9
a 135 148 4
a 148 135 4
a 137 150 7
a 150 137 7
a 137 138 6
a 138 137 6
a 138 151 4
a 151 138 4
a 140 153 8
a 153 140 8
a 140 141 8
a 141 140 8
a 141 154 2
a 154 141 2
a 141 142 7
a 142 141 7
a 142 155 6
a 155 142 6
a 142 143 7
a 143 142 7
a 143 156 2
a 156 143 2
a 144 157 8
a 157 144 8
a 144 145 9
a 145 144 9
a 145 158 10
a 158 145 10
a 145 146 8
a 146 145 8
a 146 159 6
a 159 146 6
a 146 147 6
a 147 146 6
a 147 160 9
a 160 147 9
a 147 148 3
a 148 147 3
a 148 161 7
a 161 148 7
a 148 149 9
a 149 148 9
a 149 162 9
a 162 149 9
a 149 150 6
a 150 149 6
a 150 151 10
a 151 150 10
a 151 164 4
a 164 151 4
a 151 152 3
a 152 151 3
a 152 165 3
a 165 152 3
a 152 153 5
a 153 152 5
a 153 166 9
a 166 153 9
a 153 154 6
a 154 153 6
a 154 167 3
a 167 154 3
a 154 155 5
a 155 154 5
a 155 168 1
a 168 155 1
a 155 156 6
a 156 155 6
a 156 169 2
a 169 156 2
a 157 158 4
a 158 157 4
a 158 159 3
a 159 158 3
a 159 160 8
a 160 159 8
a 160 161 2
a 161 160 2
a 161 162 8
a 162 161 8
a 164 165 10
a 165 164 10
a 165 166 1
a 166 165 1
a 166 167 9
a 167 166 9
a 167 168 7
a 168 167 7
a 168 169 7
a 169 168 7
